#######################################
### Exact MIP solver for the HHCRSP ###
#######################################
-- Instance file: new-instances/HHCRSP_100_20_38_1.6_R_RC.txt
-- Max threads: 4
-- Time limit: 999999 seconds
-- Use initial solution: No
Trivial flow violations prevented generating 46828 variables.
Model exported.
Version identifier: 20.1.0.0 | 2020-11-10 | 9bedb6d68
CPXPARAM_Threads                                 4
CPXPARAM_TimeLimit                               999999
Parallel mode: deterministic, using up to 4 threads for concurrent optimization:
 * Starting dual Simplex on 1 thread...
 * Starting Barrier on 3 threads...
Tried aggregator 1 time.
LP Presolve eliminated 5736 rows and 1511 columns.
Reduced LP has 56260 rows, 53767 columns, and 672404 nonzeros.
Presolve time = 0.60 sec. (170.99 ticks)
Symmetry aggregator did 75701 additional substitutions.

Iteration log . . .
Iteration:     1   Dual objective     =             0.000000

Dual crossover.
  Dual:  Fixing 266 variables.
      265 DMoves:  Infeasibility  1.07358574e-13  Objective  1.83333333e+02
        0 DMoves:  Infeasibility  6.37823204e-14  Objective  1.83333333e+02
  Dual:  Pushed 18, exchanged 248.
  Primal:  Fixing 190 variables.
      189 PMoves:  Infeasibility  1.44328993e-15  Objective  1.83333333e+02
        0 PMoves:  Infeasibility  1.49880108e-15  Objective  1.83333333e+02
  Primal:  Pushed 132, exchanged 58.

Dual simplex solved model.


Solution status from MIP model:
-- Processing time: 0.916 sec.
-- Memory used: 123.288 MB
-- Best bound: inf
-- Obj value: 183.333
-- Gap: inf%
-- Total distance: 550
-- Total tardiness: 0
-- Largest tardiness: 0
